(declare-const param0 Int)
(declare-const __cost Int)
(assert (exists
         ((j?1 Int) (|j'?2| Int) (tmp?3 Int) (|tmp'?4| Int) (|__cost'?5| Int)
            (|i'?6| Int) (K?7 Int))
         (and (<= (- param0) 0)
                (or (not (<= (- K?7) 0)) (= (+ |i'?6| (- K?7) -1) 0))
                (or (not (<= (- K?7) 0)) (<= (- |__cost'?5|) 0))
                (or (not (<= (- K?7) 0))
                      (<= (+ (* 2 |__cost'?5|) (- (* K?7 K?7)) K?7) 0))
                (or (and (= K?7 0) (= (+ (- |tmp'?4|) tmp?3) 0)
                           (= (+ (- |j'?2|) j?1) 0) (= (+ (- |i'?6|) 1) 0)
                           (= (- |__cost'?5|) 0))
                      (and (<= (+ (- K?7) 1) 0) (<= (+ (- param0) 2) 0)
                             (<= (+ (- |j'?2|) (- |__cost'?5|) |i'?6| -2) 0)
                             (<= (+ |i'?6| (- param0)) 0) (<= (- |j'?2|) 0)
                             (<= (+ |j'?2| (- |i'?6|) 2) 0))) (<= (- K?7) 0)
                (<= (- |__cost'?5|) 0) (< (- |i'?6|) 0) (<= (- param0) 0)
                (<= (+ (- |i'?6|) param0) 0) (= (+ __cost (- |__cost'?5|)) 0))))
(check-sat)
